NAME          etoh                                           
ROWS                                                         
 N  COST                                                     
 E  EQ1                                                      
 E  EQ2                                                      
 E  EQ3                                                      
 E  EQ4                                                      
 E  EQ5                                                      
 E  EQ6                                                      
 E  EQ7                                                      
 E  EQ8                                                      
 E  EQ9                                                      
 E  EQ10                                                     
 E  EQ11                                                     
 E  EQ12                                                     
 E  EQ13                                                     
 E  EQ14                                                     
 E  EQ15                                                     
 E  EQ16                                                     
 E  EQ17                                                     
 E  EQ18                                                     
 E  EQ19                                                     
 E  EQ20                                                     
 E  EQ21                                                     
 E  EQ22                                                     
 E  EQ23                                                     
 E  EQ24                                                     
 E  EQ25                                                     
 E  EQ26                                                     
 E  EQ27                                                     
 E  EQ28                                                     
 E  EQ29                                                     
 E  EQ30                                                     
 E  EQ31                                                     
 E  EQ32                                                     
 E  EQ33                                                     
 E  EQ34                                                     
 E  EQ35                                                     
 E  EQ36                                                     
 E  EQ37                                                     
 E  EQ38                                                     
 E  EQ39                                                     
 E  EQ40                                                     
 E  EQ41                                                     
 E  EQ42                                                     
 E  EQ43                                                     
 E  EQ44                                                     
 E  EQ45                                                     
 E  EQ46                                                     
 E  EQ47                                                     
 E  EQ48                                                     
 E  EQ49                                                     
 E  EQ50                                                     
 E  EQ51                                                     
 E  EQ52                                                     
 E  EQ53                                                     
 E  EQ54                                                     
 E  EQ55                                                     
 E  EQ56                                                     
 E  EQ57                                                     
 E  EQ58                                                     
 E  EQ59                                                     
 E  EQ60                                                     
 E  EQ61                                                     
 E  EQ62                                                     
 E  EQ63                                                     
 E  EQ64                                                     
 E  EQ65                                                     
 E  EQ66                                                     
 E  EQ67                                                     
 E  EQ68                                                     
 E  EQ69                                                     
 E  EQ70                                                     
 E  EQ71                                                     
 E  EQ72                                                     
COLUMNS                                                      
    ACALD     EQ8       -1             EQ10      1           
    ACALD     EQ21      -1             EQ43      1           
    ACALD     EQ50      -1             EQ51      1           
    ACALDt    EQ8       1              EQ9       -1          
    ACKr      EQ6       -1             EQ12      1           
    ACKr      EQ13      1              EQ17      -1          
    ACONTa    EQ11      1              EQ18      -1          
    ACONTa    EQ41      1                                    
    ACONTb    EQ11      -1             EQ41      -1          
    ACONTb    EQ45      1                                    
    ACt2r     EQ6       1              EQ7       -1          
    ACt2r     EQ43      1              EQ44      -1          
    ADK1      EQ13      2              EQ16      -1          
    ADK1      EQ17      -1                                   
    AKGDH     EQ14      -1             EQ19      1           
    AKGDH     EQ21      -1             EQ50      -1          
    AKGDH     EQ51      1              EQ71      1           
    AKGt2r    EQ14      1              EQ15      -1          
    AKGt2r    EQ43      1              EQ44      -1          
    ALCD2x    EQ8       1              EQ24      -1          
    ALCD2x    EQ43      1              EQ50      -1          
    ALCD2x    EQ51      1                                    
    ATPM      EQ13      1              EQ17      -1          
    ATPM      EQ41      -1             EQ43      1           
    ATPM      EQ60      1                                    
    ATPS4r    EQ13      -1             EQ17      1           
    ATPS4r    EQ41      1              EQ43      3           
    ATPS4r    EQ44      -4             EQ60      -1          
    BIOMASS_  COST      -1             EQ3       -1.496      
    BIOMASS_  EQ10      -3.7478        EQ13      59.81       
    BIOMASS_  EQ14      4.1182         EQ17      -59.81      
    BIOMASS_  EQ21      3.7478         EQ23      -0.361      
    BIOMASS_  EQ26      -0.0709        EQ33      -0.129      
    BIOMASS_  EQ34      -0.205         EQ36      -0.2557     
    BIOMASS_  EQ38      -4.9414        EQ41      -59.81      
    BIOMASS_  EQ43      59.81          EQ50      -3.547      
    BIOMASS_  EQ51      3.547          EQ52      13.0279     
    BIOMASS_  EQ53      -13.0279       EQ58      -1.7867     
    BIOMASS_  EQ59      -0.5191        EQ60      59.81       
    BIOMASS_  EQ62      -2.8328        EQ66      -0.8977     
    CO2t      EQ19      1              EQ20      -1          
    CS        EQ10      -1             EQ18      1           
    CS        EQ21      1              EQ41      -1          
    CS        EQ43      1              EQ58      -1          
    CYTBD     EQ41      1              EQ43      -2          
    CYTBD     EQ44      2              EQ56      -0.5        
    CYTBD     EQ64      1              EQ65      -1          
    D_LACt2   EQ43      1              EQ44      -1          
    D_LACt2   EQ46      1              EQ47      -1          
    ENO       EQ2       -1             EQ41      1           
    ENO       EQ59      1                                    
    ETOHt2r   EQ24      1              EQ25      -1          
    ETOHt2r   EQ43      1              EQ44      -1          
    EX_ac_e   EQ7       -1                                   
    EX_acald  EQ9       -1                                   
    EX_akg_e  EQ15      -1                                   
    EX_co2_e  EQ20      -1                                   
    EX_etoh_  COST      0.0001         EQ25      -1          
    EX_for_e  EQ29      -1                                   
    EX_fru_e  EQ30      -1                                   
    EX_fum_e  EQ32      -1                                   
    EX_glc__  EQ35      -1                                   
    EX_gln__  EQ37      -1                                   
    EX_glu__  EQ39      -1                                   
    EX_h_e    EQ44      -1                                   
    EX_h2o_e  EQ42      -1                                   
    EX_lac__  EQ47      -1                                   
    EX_mal__  EQ49      -1                                   
    EX_nh4_e  EQ55      -1                                   
    EX_o2_e   EQ57      -1                                   
    EX_pi_e   EQ61      -1                                   
    EX_pyr_e  EQ63      -1                                   
    EX_succ_  EQ70      -1                                   
    FBA       EQ22      1              EQ27      -1          
    FBA       EQ33      1                                    
    FBP       EQ26      1              EQ27      -1          
    FBP       EQ41      -1             EQ60      1           
    FORt2     EQ28      1              EQ29      -1          
    FORt2     EQ43      1              EQ44      -1          
    FORt      EQ28      1              EQ29      -1          
    FRD7      EQ31      -1             EQ64      1           
    FRD7      EQ65      -1             EQ69      1           
    FRUpts2   EQ26      1              EQ30      -1          
    FRUpts2   EQ59      -1             EQ62      1           
    FUM       EQ31      -1             EQ41      -1          
    FUM       EQ48      1                                    
    FUMt2_2   EQ31      1              EQ32      -1          
    FUMt2_2   EQ43      2              EQ44      -2          
    G6PDH2r   EQ5       1              EQ34      -1          
    G6PDH2r   EQ43      1              EQ52      -1          
    G6PDH2r   EQ53      1                                    
    GAPD      EQ1       1              EQ33      -1          
    GAPD      EQ43      1              EQ50      -1          
    GAPD      EQ51      1              EQ60      -1          
    GLCpts    EQ34      1              EQ35      -1          
    GLCpts    EQ59      -1             EQ62      1           
    GLNS      EQ13      1              EQ17      -1          
    GLNS      EQ36      1              EQ38      -1          
    GLNS      EQ43      1              EQ54      -1          
    GLNS      EQ60      1                                    
    GLNabc    EQ13      1              EQ17      -1          
    GLNabc    EQ36      1              EQ37      -1          
    GLNabc    EQ41      -1             EQ43      1           
    GLNabc    EQ60      1                                    
    GLUDy     EQ14      1              EQ38      -1          
    GLUDy     EQ41      -1             EQ43      1           
    GLUDy     EQ52      -1             EQ53      1           
    GLUDy     EQ54      1                                    
    GLUN      EQ36      -1             EQ38      1           
    GLUN      EQ41      -1             EQ54      1           
    GLUSy     EQ14      -1             EQ36      -1          
    GLUSy     EQ38      2              EQ43      -1          
    GLUSy     EQ52      1              EQ53      -1          
    GLUt2r    EQ38      1              EQ39      -1          
    GLUt2r    EQ43      1              EQ44      -1          
    GND       EQ4       -1             EQ19      1           
    GND       EQ52      -1             EQ53      1           
    GND       EQ67      1                                    
    H2Ot      EQ41      1              EQ42      -1          
    ICDHyr    EQ14      1              EQ19      1           
    ICDHyr    EQ45      -1             EQ52      -1          
    ICDHyr    EQ53      1                                    
    ICL       EQ40      1              EQ45      -1          
    ICL       EQ69      1                                    
    LDH_D     EQ43      1              EQ46      -1          
    LDH_D     EQ50      -1             EQ51      1           
    LDH_D     EQ62      1                                    
    MALS      EQ10      -1             EQ21      1           
    MALS      EQ40      -1             EQ41      -1          
    MALS      EQ43      1              EQ48      1           
    MALt2_2   EQ43      2              EQ44      -2          
    MALt2_2   EQ48      1              EQ49      -1          
    MDH       EQ43      1              EQ48      -1          
    MDH       EQ50      -1             EQ51      1           
    MDH       EQ58      1                                    
    ME1       EQ19      1              EQ48      -1          
    ME1       EQ50      -1             EQ51      1           
    ME1       EQ62      1                                    
    ME2       EQ19      1              EQ48      -1          
    ME2       EQ52      -1             EQ53      1           
    ME2       EQ62      1                                    
    NADH16    EQ43      -4             EQ44      3           
    NADH16    EQ50      1              EQ51      -1          
    NADH16    EQ64      -1             EQ65      1           
    NADTRHD   EQ50      -1             EQ51      1           
    NADTRHD   EQ52      1              EQ53      -1          
    NH4t      EQ54      1              EQ55      -1          
    O2t       EQ56      1              EQ57      -1          
    PDH       EQ10      1              EQ19      1           
    PDH       EQ21      -1             EQ50      -1          
    PDH       EQ51      1              EQ62      -1          
    PFK       EQ13      1              EQ17      -1          
    PFK       EQ26      -1             EQ27      1           
    PFK       EQ43      1                                    
    PFL       EQ10      1              EQ21      -1          
    PFL       EQ28      1              EQ62      -1          
    PGI       EQ26      1              EQ34      -1          
    PGK       EQ1       1              EQ3       -1          
    PGK       EQ13      1              EQ17      -1          
    PGL       EQ4       1              EQ5       -1          
    PGL       EQ41      -1             EQ43      1           
    PGM       EQ2       -1             EQ3       1           
    PIt2r     EQ43      1              EQ44      -1          
    PIt2r     EQ60      1              EQ61      -1          
    PPC       EQ19      -1             EQ41      -1          
    PPC       EQ43      1              EQ58      1           
    PPC       EQ59      -1             EQ60      1           
    PPCK      EQ13      1              EQ17      -1          
    PPCK      EQ19      1              EQ58      -1          
    PPCK      EQ59      1                                    
    PPS       EQ16      1              EQ17      -1          
    PPS       EQ41      -1             EQ43      2           
    PPS       EQ59      1              EQ60      1           
    PPS       EQ62      -1                                   
    PTAr      EQ10      -1             EQ12      1           
    PTAr      EQ21      1              EQ60      -1          
    PYK       EQ13      -1             EQ17      1           
    PYK       EQ43      -1             EQ59      -1          
    PYK       EQ62      1                                    
    PYRt2     EQ43      1              EQ44      -1          
    PYRt2     EQ62      1              EQ63      -1          
    RPE       EQ67      -1             EQ72      1           
    RPI       EQ66      -1             EQ67      1           
    SUCCt2_2  EQ43      2              EQ44      -2          
    SUCCt2_2  EQ69      1              EQ70      -1          
    SUCCt3    EQ43      1              EQ44      -1          
    SUCCt3    EQ69      -1             EQ70      1           
    SUCDi     EQ31      1              EQ64      -1          
    SUCDi     EQ65      1              EQ69      -1          
    SUCOAS    EQ13      1              EQ17      -1          
    SUCOAS    EQ21      -1             EQ60      1           
    SUCOAS    EQ69      -1             EQ71      1           
    TALA      EQ23      1              EQ26      1           
    TALA      EQ33      -1             EQ68      -1          
    THD2      EQ43      2              EQ44      -2          
    THD2      EQ50      1              EQ51      -1          
    THD2      EQ52      -1             EQ53      1           
    TKT1      EQ33      1              EQ66      -1          
    TKT1      EQ68      1              EQ72      -1          
    TKT2      EQ23      -1             EQ26      1           
    TKT2      EQ33      1              EQ72      -1          
    TPI       EQ22      -1             EQ33      1           
RHS                                                          
BOUNDS                                                       
 LO BND1      ACALD     -1000                                
 UP BND1      ACALD     1000                                 
 LO BND1      ACALDt    -1000                                
 UP BND1      ACALDt    1000                                 
 LO BND1      ACKr      -1000                                
 UP BND1      ACKr      1000                                 
 LO BND1      ACONTa    -1000                                
 UP BND1      ACONTa    1000                                 
 LO BND1      ACONTb    -1000                                
 UP BND1      ACONTb    1000                                 
 LO BND1      ACt2r     -1000                                
 UP BND1      ACt2r     1000                                 
 LO BND1      ADK1      -1000                                
 UP BND1      ADK1      1000                                 
 UP BND1      AKGDH     1000                                 
 LO BND1      AKGt2r    -1000                                
 UP BND1      AKGt2r    1000                                 
 LO BND1      ALCD2x    -1000                                
 UP BND1      ALCD2x    1000                                 
 LO BND1      ATPM      8.39                                 
 UP BND1      ATPM      1000                                 
 LO BND1      ATPS4r    -1000                                
 UP BND1      ATPS4r    1000                                 
 LO BND1      BIOMASS_  0.0423                               
 UP BND1      BIOMASS_  1000                                 
 LO BND1      CO2t      -1000                                
 UP BND1      CO2t      1000                                 
 UP BND1      CS        1000                                 
 UP BND1      CYTBD     1000                                 
 LO BND1      D_LACt2   -1000                                
 UP BND1      D_LACt2   1000                                 
 LO BND1      ENO       -1000                                
 UP BND1      ENO       1000                                 
 LO BND1      ETOHt2r   -1000                                
 UP BND1      ETOHt2r   1000                                 
 UP BND1      EX_ac_e   1000                                 
 UP BND1      EX_acald  1000                                 
 UP BND1      EX_akg_e  1000                                 
 LO BND1      EX_co2_e  -1000                                
 UP BND1      EX_co2_e  1000                                 
 UP BND1      EX_etoh_  1000                                 
 UP BND1      EX_for_e  1000                                 
 UP BND1      EX_fru_e  1000                                 
 UP BND1      EX_fum_e  1000                                 
 LO BND1      EX_glc__  -10                                  
 UP BND1      EX_glc__  -10                                  
 UP BND1      EX_gln__  1000                                 
 UP BND1      EX_glu__  1000                                 
 LO BND1      EX_h_e    -1000                                
 UP BND1      EX_h_e    1000                                 
 LO BND1      EX_h2o_e  -1000                                
 UP BND1      EX_h2o_e  1000                                 
 UP BND1      EX_lac__  1000                                 
 UP BND1      EX_mal__  1000                                 
 LO BND1      EX_nh4_e  -1000                                
 UP BND1      EX_nh4_e  1000                                 
 UP BND1      EX_o2_e   1000                                 
 LO BND1      EX_pi_e   -1000                                
 UP BND1      EX_pi_e   1000                                 
 UP BND1      EX_pyr_e  1000                                 
 UP BND1      EX_succ_  1000                                 
 LO BND1      FBA       -1000                                
 UP BND1      FBA       1000                                 
 UP BND1      FBP       1000                                 
 UP BND1      FORt2     1000                                 
 LO BND1      FORt      -1000                                
 UP BND1      FORt      0                                    
 UP BND1      FRD7      1000                                 
 UP BND1      FRUpts2   1000                                 
 LO BND1      FUM       -1000                                
 UP BND1      FUM       1000                                 
 UP BND1      FUMt2_2   1000                                 
 LO BND1      G6PDH2r   -1000                                
 UP BND1      G6PDH2r   1000                                 
 LO BND1      GAPD      -1000                                
 UP BND1      GAPD      1000                                 
 UP BND1      GLCpts    1000                                 
 UP BND1      GLNS      1000                                 
 UP BND1      GLNabc    1000                                 
 LO BND1      GLUDy     -1000                                
 UP BND1      GLUDy     1000                                 
 UP BND1      GLUN      1000                                 
 UP BND1      GLUSy     1000                                 
 LO BND1      GLUt2r    -1000                                
 UP BND1      GLUt2r    1000                                 
 UP BND1      GND       1000                                 
 LO BND1      H2Ot      -1000                                
 UP BND1      H2Ot      1000                                 
 LO BND1      ICDHyr    -1000                                
 UP BND1      ICDHyr    1000                                 
 UP BND1      ICL       1000                                 
 LO BND1      LDH_D     -1000                                
 UP BND1      LDH_D     1000                                 
 UP BND1      MALS      1000                                 
 UP BND1      MALt2_2   1000                                 
 LO BND1      MDH       -1000                                
 UP BND1      MDH       1000                                 
 UP BND1      ME1       1000                                 
 UP BND1      ME2       1000                                 
 UP BND1      NADH16    1000                                 
 UP BND1      NADTRHD   1000                                 
 LO BND1      NH4t      -1000                                
 UP BND1      NH4t      1000                                 
 LO BND1      O2t       -1000                                
 UP BND1      O2t       1000                                 
 UP BND1      PDH       1000                                 
 UP BND1      PFK       1000                                 
 UP BND1      PFL       1000                                 
 LO BND1      PGI       -1000                                
 UP BND1      PGI       1000                                 
 LO BND1      PGK       -1000                                
 UP BND1      PGK       1000                                 
 UP BND1      PGL       1000                                 
 LO BND1      PGM       -1000                                
 UP BND1      PGM       1000                                 
 LO BND1      PIt2r     -1000                                
 UP BND1      PIt2r     1000                                 
 UP BND1      PPC       1000                                 
 UP BND1      PPCK      1000                                 
 UP BND1      PPS       1000                                 
 LO BND1      PTAr      -1000                                
 UP BND1      PTAr      1000                                 
 UP BND1      PYK       1000                                 
 LO BND1      PYRt2     -1000                                
 UP BND1      PYRt2     1000                                 
 LO BND1      RPE       -1000                                
 UP BND1      RPE       1000                                 
 LO BND1      RPI       -1000                                
 UP BND1      RPI       1000                                 
 UP BND1      SUCCt2_2  1000                                 
 UP BND1      SUCCt3    1000                                 
 UP BND1      SUCDi     1000                                 
 LO BND1      SUCOAS    -1000                                
 UP BND1      SUCOAS    1000                                 
 LO BND1      TALA      -1000                                
 UP BND1      TALA      1000                                 
 UP BND1      THD2      1000                                 
 LO BND1      TKT1      -1000                                
 UP BND1      TKT1      1000                                 
 LO BND1      TKT2      -1000                                
 UP BND1      TKT2      1000                                 
 LO BND1      TPI       -1000                                
 UP BND1      TPI       1000                                 
ENDATA                                                       
